Name:		mgval_0.45_6A
Optimal value:	213
#Vehicles:	3
Capacity:	170
Depot Node:	1
#Nodes:		31
#Edges:		22
#Arcs:		47
#Required N:	23
#Required E:	12
#Required A:	25

ReN.	DEMAND	S. COST
N2	10	10
N3	5	5
N4	6	6
N5	9	9
N6	15	15
N7	7	7
N8	7	7
N9	9	9
N10	13	13
N11	4	4
N12	11	11
N14	7	7
N16	8	8
N17	5	5
N18	6	6
N19	20	20
N20	5	5
N22	6	6
N23	10	10
N25	12	12
N27	7	7
N29	10	10
N31	2	2

ReE.	FROM N.	TO N.	T. COST	DEMAND	S. COST
E11	23	26	2	6	6
E12	5	31	1	4	4
E13	24	27	2	5	5
E14	19	22	2	9	9
E15	13	19	6	14	14
E16	8	9	7	12	12
E17	1	7	10	13	13
E18	18	21	3	7	7
E19	1	30	4	12	12
E20	23	25	3	7	7
E21	6	7	3	9	9
E22	21	22	4	14	14

EDGE	FROM N.	TO N.	T. COST
NrE1	25	28	5
NrE2	14	15	5
NrE3	19	20	4
NrE4	10	16	2
NrE5	23	24	3
NrE6	19	21	3
NrE7	29	31	2
NrE8	6	31	3
NrE9	3	9	2
NrE10	9	13	6

ReA.	FROM N.	TO N.	T. COST	DEMAND	S. COST
A23	29	28	3	5	5
A24	3	4	5	6	6
A25	26	28	5	6	6
A26	9	4	9	2	2
A27	12	8	8	14	14
A28	11	6	2	6	6
A29	18	19	5	9	9
A30	30	29	7	5	5
A31	17	11	4	10	10
A32	1	2	2	2	2
A33	13	12	4	7	7
A34	10	11	4	10	10
A35	29	27	2	4	4
A36	28	29	3	4	4
A37	1	31	3	2	2
A38	2	3	1	14	14
A39	10	14	1	2	2
A40	15	16	3	4	4
A41	31	28	3	4	4
A42	14	10	1	2	2
A43	6	5	3	4	4
A44	4	9	9	1	1
A45	4	13	3	8	8
A46	28	26	5	7	7
A47	8	2	6	7	7

ARC	FROM N.	TO N.	T. COST
NrA1	12	18	5
NrA2	27	26	1
NrA3	5	6	3
NrA4	12	11	5
NrA5	20	22	5
NrA6	4	3	5
NrA7	16	17	2
NrA8	18	12	5
NrA9	27	29	2
NrA10	11	12	5
NrA11	7	8	3
NrA12	2	1	2
NrA13	5	10	4
NrA14	10	5	4
NrA15	2	8	6
NrA16	29	30	7
NrA17	6	11	2
NrA18	31	1	3
NrA19	16	15	3
NrA20	8	7	3
NrA21	22	20	5
NrA22	17	16	2
